% demand
num_movements = 26;
loading_factor = [1900, 1850, 1650, 1600, 800, 1700, 850, 1550, 1000, 2000, 1200, 1850, 1450, 1150, 1650, 1050, 950, 950, 850, 800, 1600, 1750, 1050, 850, 1850, 850];
pickup_time = [0, 0, 0, 1, 3, 4, 5, 5, 5, 5, 5, 7, 8, 8, 9, 9, 9, 9, 9, 9, 10, 12, 12, 12, 12, 12];
delivery_time = [2, 3, 2, 2, 5, 5, 6, 9, 9, 8, 6, 9, 9, 9, 11, 11, 11, 11, 10, 11, 11, 13, 13, 13, 13, 13];

% transporter definition
total_capacity = 7000;
num_decks = 3;
capacity = [3000, 1000, 3000];

% ways out of decks
num_ways_out = 1;
paths_out = array3d(decks, ways_out, decks, [
% ways out of deck d1
2, 3, 0, 

% ways out of deck d2
3, 0, 0, 

% ways out of deck d3
0, 0, 0,	

]);

